c File: flat50_3_0.col
c
c SOURCE: Joseph Culberson (joe@cs.ualberta.ca)
c DESCRIPTION: Quasi-random coloring problem
c              generated with flatness = 0
c                             probability = 0.139
c                             known coloring = 3
c                             random seed = 1253
c              Creation Date:  Tue Jun  9 12:04:51 1998
c Maximum degree = 8 Minimum degree = 1
c p edge 50 115
c cnf created by edge2cnf
p cnf 150 545
-1 -2 0
-1 -3 0
-2 -3 0
1 2 3 0
-4 -5 0
-4 -6 0
-5 -6 0
4 5 6 0
-7 -8 0
-7 -9 0
-8 -9 0
7 8 9 0
-10 -11 0
-10 -12 0
-11 -12 0
10 11 12 0
-13 -14 0
-13 -15 0
-14 -15 0
13 14 15 0
-16 -17 0
-16 -18 0
-17 -18 0
16 17 18 0
-19 -20 0
-19 -21 0
-20 -21 0
19 20 21 0
-22 -23 0
-22 -24 0
-23 -24 0
22 23 24 0
-25 -26 0
-25 -27 0
-26 -27 0
25 26 27 0
-28 -29 0
-28 -30 0
-29 -30 0
28 29 30 0
-31 -32 0
-31 -33 0
-32 -33 0
31 32 33 0
-34 -35 0
-34 -36 0
-35 -36 0
34 35 36 0
-37 -38 0
-37 -39 0
-38 -39 0
37 38 39 0
-40 -41 0
-40 -42 0
-41 -42 0
40 41 42 0
-43 -44 0
-43 -45 0
-44 -45 0
43 44 45 0
-46 -47 0
-46 -48 0
-47 -48 0
46 47 48 0
-49 -50 0
-49 -51 0
-50 -51 0
49 50 51 0
-52 -53 0
-52 -54 0
-53 -54 0
52 53 54 0
-55 -56 0
-55 -57 0
-56 -57 0
55 56 57 0
-58 -59 0
-58 -60 0
-59 -60 0
58 59 60 0
-61 -62 0
-61 -63 0
-62 -63 0
61 62 63 0
-64 -65 0
-64 -66 0
-65 -66 0
64 65 66 0
-67 -68 0
-67 -69 0
-68 -69 0
67 68 69 0
-70 -71 0
-70 -72 0
-71 -72 0
70 71 72 0
-73 -74 0
-73 -75 0
-74 -75 0
73 74 75 0
-76 -77 0
-76 -78 0
-77 -78 0
76 77 78 0
-79 -80 0
-79 -81 0
-80 -81 0
79 80 81 0
-82 -83 0
-82 -84 0
-83 -84 0
82 83 84 0
-85 -86 0
-85 -87 0
-86 -87 0
85 86 87 0
-88 -89 0
-88 -90 0
-89 -90 0
88 89 90 0
-91 -92 0
-91 -93 0
-92 -93 0
91 92 93 0
-94 -95 0
-94 -96 0
-95 -96 0
94 95 96 0
-97 -98 0
-97 -99 0
-98 -99 0
97 98 99 0
-100 -101 0
-100 -102 0
-101 -102 0
100 101 102 0
-103 -104 0
-103 -105 0
-104 -105 0
103 104 105 0
-106 -107 0
-106 -108 0
-107 -108 0
106 107 108 0
-109 -110 0
-109 -111 0
-110 -111 0
109 110 111 0
-112 -113 0
-112 -114 0
-113 -114 0
112 113 114 0
-115 -116 0
-115 -117 0
-116 -117 0
115 116 117 0
-118 -119 0
-118 -120 0
-119 -120 0
118 119 120 0
-121 -122 0
-121 -123 0
-122 -123 0
121 122 123 0
-124 -125 0
-124 -126 0
-125 -126 0
124 125 126 0
-127 -128 0
-127 -129 0
-128 -129 0
127 128 129 0
-130 -131 0
-130 -132 0
-131 -132 0
130 131 132 0
-133 -134 0
-133 -135 0
-134 -135 0
133 134 135 0
-136 -137 0
-136 -138 0
-137 -138 0
136 137 138 0
-139 -140 0
-139 -141 0
-140 -141 0
139 140 141 0
-142 -143 0
-142 -144 0
-143 -144 0
142 143 144 0
-145 -146 0
-145 -147 0
-146 -147 0
145 146 147 0
-148 -149 0
-148 -150 0
-149 -150 0
148 149 150 0
-52 -1 0
-53 -2 0
-54 -3 0
-67 -1 0
-68 -2 0
-69 -3 0
-82 -1 0
-83 -2 0
-84 -3 0
-100 -1 0
-101 -2 0
-102 -3 0
-139 -1 0
-140 -2 0
-141 -3 0
-70 -4 0
-71 -5 0
-72 -6 0
-79 -4 0
-80 -5 0
-81 -6 0
-115 -4 0
-116 -5 0
-117 -6 0
-52 -7 0
-53 -8 0
-54 -9 0
-115 -7 0
-116 -8 0
-117 -9 0
-133 -7 0
-134 -8 0
-135 -9 0
-79 -10 0
-80 -11 0
-81 -12 0
-82 -10 0
-83 -11 0
-84 -12 0
-88 -10 0
-89 -11 0
-90 -12 0
-109 -10 0
-110 -11 0
-111 -12 0
-136 -10 0
-137 -11 0
-138 -12 0
-139 -10 0
-140 -11 0
-141 -12 0
-145 -10 0
-146 -11 0
-147 -12 0
-67 -13 0
-68 -14 0
-69 -15 0
-73 -13 0
-74 -14 0
-75 -15 0
-112 -13 0
-113 -14 0
-114 -15 0
-121 -13 0
-122 -14 0
-123 -15 0
-85 -16 0
-86 -17 0
-87 -18 0
-124 -16 0
-125 -17 0
-126 -18 0
-70 -19 0
-71 -20 0
-72 -21 0
-85 -19 0
-86 -20 0
-87 -21 0
-94 -19 0
-95 -20 0
-96 -21 0
-97 -19 0
-98 -20 0
-99 -21 0
-103 -19 0
-104 -20 0
-105 -21 0
-109 -19 0
-110 -20 0
-111 -21 0
-100 -22 0
-101 -23 0
-102 -24 0
-109 -22 0
-110 -23 0
-111 -24 0
-121 -22 0
-122 -23 0
-123 -24 0
-61 -25 0
-62 -26 0
-63 -27 0
-91 -25 0
-92 -26 0
-93 -27 0
-103 -25 0
-104 -26 0
-105 -27 0
-106 -25 0
-107 -26 0
-108 -27 0
-64 -28 0
-65 -29 0
-66 -30 0
-70 -28 0
-71 -29 0
-72 -30 0
-124 -28 0
-125 -29 0
-126 -30 0
-145 -28 0
-146 -29 0
-147 -30 0
-148 -28 0
-149 -29 0
-150 -30 0
-64 -31 0
-65 -32 0
-66 -33 0
-88 -31 0
-89 -32 0
-90 -33 0
-103 -34 0
-104 -35 0
-105 -36 0
-58 -37 0
-59 -38 0
-60 -39 0
-97 -37 0
-98 -38 0
-99 -39 0
-100 -37 0
-101 -38 0
-102 -39 0
-118 -37 0
-119 -38 0
-120 -39 0
-124 -37 0
-125 -38 0
-126 -39 0
-130 -37 0
-131 -38 0
-132 -39 0
-133 -37 0
-134 -38 0
-135 -39 0
-55 -40 0
-56 -41 0
-57 -42 0
-73 -40 0
-74 -41 0
-75 -42 0
-82 -40 0
-83 -41 0
-84 -42 0
-106 -40 0
-107 -41 0
-108 -42 0
-115 -40 0
-116 -41 0
-117 -42 0
-139 -40 0
-140 -41 0
-141 -42 0
-64 -43 0
-65 -44 0
-66 -45 0
-88 -43 0
-89 -44 0
-90 -45 0
-94 -43 0
-95 -44 0
-96 -45 0
-112 -43 0
-113 -44 0
-114 -45 0
-118 -43 0
-119 -44 0
-120 -45 0
-133 -43 0
-134 -44 0
-135 -45 0
-52 -46 0
-53 -47 0
-54 -48 0
-73 -46 0
-74 -47 0
-75 -48 0
-100 -46 0
-101 -47 0
-102 -48 0
-124 -46 0
-125 -47 0
-126 -48 0
-130 -46 0
-131 -47 0
-132 -48 0
-136 -46 0
-137 -47 0
-138 -48 0
-145 -46 0
-146 -47 0
-147 -48 0
-52 -49 0
-53 -50 0
-54 -51 0
-85 -49 0
-86 -50 0
-87 -51 0
-88 -49 0
-89 -50 0
-90 -51 0
-94 -49 0
-95 -50 0
-96 -51 0
-133 -49 0
-134 -50 0
-135 -51 0
-139 -49 0
-140 -50 0
-141 -51 0
-103 -52 0
-104 -53 0
-105 -54 0
-115 -52 0
-116 -53 0
-117 -54 0
-124 -55 0
-125 -56 0
-126 -57 0
-136 -55 0
-137 -56 0
-138 -57 0
-148 -55 0
-149 -56 0
-150 -57 0
-106 -58 0
-107 -59 0
-108 -60 0
-136 -58 0
-137 -59 0
-138 -60 0
-145 -58 0
-146 -59 0
-147 -60 0
-103 -61 0
-104 -62 0
-105 -63 0
-109 -61 0
-110 -62 0
-111 -63 0
-115 -61 0
-116 -62 0
-117 -63 0
-145 -67 0
-146 -68 0
-147 -69 0
-148 -67 0
-149 -68 0
-150 -69 0
-142 -70 0
-143 -71 0
-144 -72 0
-127 -73 0
-128 -74 0
-129 -75 0
-127 -76 0
-128 -77 0
-129 -78 0
-139 -76 0
-140 -77 0
-141 -78 0
-112 -79 0
-113 -80 0
-114 -81 0
-124 -79 0
-125 -80 0
-126 -81 0
-136 -79 0
-137 -80 0
-138 -81 0
-148 -82 0
-149 -83 0
-150 -84 0
-103 -85 0
-104 -86 0
-105 -87 0
-130 -85 0
-131 -86 0
-132 -87 0
-109 -88 0
-110 -89 0
-111 -90 0
-112 -88 0
-113 -89 0
-114 -90 0
-121 -88 0
-122 -89 0
-123 -90 0
-142 -88 0
-143 -89 0
-144 -90 0
-109 -91 0
-110 -92 0
-111 -93 0
-124 -91 0
-125 -92 0
-126 -93 0
-127 -91 0
-128 -92 0
-129 -93 0
-142 -91 0
-143 -92 0
-144 -93 0
-130 -94 0
-131 -95 0
-132 -96 0
-106 -97 0
-107 -98 0
-108 -99 0
-124 -97 0
-125 -98 0
-126 -99 0
-148 -97 0
-149 -98 0
-150 -99 0
-103 -100 0
-104 -101 0
-105 -102 0
-121 -100 0
-122 -101 0
-123 -102 0
-142 -100 0
-143 -101 0
-144 -102 0
